(set-info :smt-lib-version 2.6)
(set-logic QF_NIA)
(set-info :source |
Generated by: Cristina Borralleras, Daniel Larraz, Albert Oliveras, Enric Rodriguez-Carbonell, Albert Rubio
Generated on: 2017-04-27
Generator: VeryMax
Application: Termination proving
Target solver: barcelogic
|)
(set-info :license "https://creativecommons.org/licenses/by/4.0/")
(set-info :category "industrial")
(set-info :status unsat)
(declare-fun Nl33arg11 () Int)
(declare-fun Nl33arg21 () Int)
(declare-fun Nl33arg31 () Int)
(declare-fun Nl33arg41 () Int)
(declare-fun Nl33arg51 () Int)
(declare-fun Nl33arg61 () Int)
(declare-fun Nl34arg11 () Int)
(declare-fun Nl34arg21 () Int)
(declare-fun Nl34arg31 () Int)
(declare-fun Nl34arg41 () Int)
(declare-fun Nl34arg51 () Int)
(declare-fun Nl34arg61 () Int)
(declare-fun lam0n0 () Int)
(declare-fun lam0n1 () Int)
(declare-fun lam0n2 () Int)
(declare-fun lam0n3 () Int)
(declare-fun lam0n4 () Int)
(declare-fun lam0n5 () Int)
(declare-fun lam0n6 () Int)
(declare-fun lam0n7 () Int)
(declare-fun lam0n8 () Int)
(declare-fun Nl33CT1 () Int)
(declare-fun lam1n0 () Int)
(declare-fun lam1n1 () Int)
(declare-fun lam1n2 () Int)
(declare-fun lam1n3 () Int)
(declare-fun lam1n4 () Int)
(declare-fun lam1n5 () Int)
(declare-fun lam1n6 () Int)
(declare-fun lam1n7 () Int)
(declare-fun lam1n8 () Int)
(declare-fun Nl34CT1 () Int)
(declare-fun lam2n0 () Int)
(declare-fun lam2n1 () Int)
(declare-fun lam2n2 () Int)
(declare-fun lam2n3 () Int)
(declare-fun lam2n4 () Int)
(declare-fun lam2n5 () Int)
(declare-fun lam2n6 () Int)
(declare-fun lam2n7 () Int)
(declare-fun lam2n8 () Int)
(declare-fun lam3n0 () Int)
(declare-fun lam3n1 () Int)
(declare-fun lam3n2 () Int)
(declare-fun lam3n3 () Int)
(declare-fun lam3n4 () Int)
(declare-fun lam3n5 () Int)
(declare-fun lam3n6 () Int)
(declare-fun lam3n7 () Int)
(declare-fun lam3n8 () Int)
(declare-fun lam4n0 () Int)
(declare-fun lam4n1 () Int)
(declare-fun lam4n2 () Int)
(declare-fun lam4n3 () Int)
(declare-fun lam4n4 () Int)
(declare-fun lam4n5 () Int)
(declare-fun lam4n6 () Int)
(declare-fun lam4n7 () Int)
(declare-fun lam4n8 () Int)
(declare-fun lam4n9 () Int)
(declare-fun lam5n0 () Int)
(declare-fun lam5n1 () Int)
(declare-fun lam5n2 () Int)
(declare-fun lam5n3 () Int)
(declare-fun lam5n4 () Int)
(declare-fun lam5n5 () Int)
(declare-fun lam5n6 () Int)
(declare-fun lam5n7 () Int)
(declare-fun lam5n8 () Int)
(declare-fun lam5n9 () Int)
(declare-fun lam6n0 () Int)
(declare-fun lam6n1 () Int)
(declare-fun lam6n2 () Int)
(declare-fun lam6n3 () Int)
(declare-fun lam6n4 () Int)
(declare-fun lam6n5 () Int)
(declare-fun lam6n6 () Int)
(declare-fun lam6n7 () Int)
(declare-fun lam6n8 () Int)
(declare-fun lam6n9 () Int)
(declare-fun lam7n0 () Int)
(declare-fun lam7n1 () Int)
(declare-fun lam7n2 () Int)
(declare-fun lam7n3 () Int)
(declare-fun lam7n4 () Int)
(declare-fun lam7n5 () Int)
(declare-fun lam7n6 () Int)
(declare-fun lam7n7 () Int)
(declare-fun lam7n8 () Int)
(declare-fun lam7n9 () Int)
(declare-fun lam8n0 () Int)
(declare-fun lam8n1 () Int)
(declare-fun lam8n2 () Int)
(declare-fun lam8n3 () Int)
(declare-fun lam8n4 () Int)
(declare-fun lam8n5 () Int)
(declare-fun lam8n6 () Int)
(declare-fun lam8n7 () Int)
(declare-fun lam8n8 () Int)
(declare-fun lam8n9 () Int)
(declare-fun lam8n10 () Int)
(declare-fun lam8n11 () Int)
(declare-fun lam8n12 () Int)
(declare-fun lam8n13 () Int)
(assert ( and ( <= ( - 2 ) Nl33arg11 ) ( <= Nl33arg11 2 ) ( <= ( - 2 ) Nl33arg21 ) ( <= Nl33arg21 2 ) ( <= ( - 2 ) Nl33arg31 ) ( <= Nl33arg31 2 ) ( <= ( - 2 ) Nl33arg41 ) ( <= Nl33arg41 2 ) ( <= ( - 2 ) Nl33arg51 ) ( <= Nl33arg51 2 ) ( <= ( - 2 ) Nl33arg61 ) ( <= Nl33arg61 2 ) ( <= ( - 2 ) Nl34arg11 ) ( <= Nl34arg11 2 ) ( <= ( - 2 ) Nl34arg21 ) ( <= Nl34arg21 2 ) ( <= ( - 2 ) Nl34arg31 ) ( <= Nl34arg31 2 ) ( <= ( - 2 ) Nl34arg41 ) ( <= Nl34arg41 2 ) ( <= ( - 2 ) Nl34arg51 ) ( <= Nl34arg51 2 ) ( <= ( - 2 ) Nl34arg61 ) ( <= Nl34arg61 2 ) ))
(assert ( or ( and ( >= lam0n0 0 ) ( >= lam0n1 0 ) ( >= lam0n2 0 ) ( >= lam0n3 0 ) ( >= lam0n4 0 ) ( >= lam0n5 0 ) ( >= lam0n6 0 ) ( >= lam0n7 0 ) ( >= lam0n8 0 ) ( > ( + ( * 1 lam0n0 ) ( * 1 lam0n1 ) ( * 1 lam0n2 ) ( * 2 lam0n3 ) ( * 2 lam0n4 ) ( * 4 lam0n6 ) ( * 3 lam0n7 ) ( * Nl33CT1 lam0n8 ) ( - 1 ) ) 0 ) ( = ( + ( * ( - 1 ) lam0n3 ) ( * ( - 1 ) lam0n4 ) ( * ( - 1 ) lam0n5 ) ( * ( - 1 ) lam0n6 ) ( * ( - 1 ) lam0n7 ) ( * Nl33arg11 lam0n8 ) ) 0 ) ( = ( + ( * ( - 1 ) lam0n0 ) ( * 1 lam0n5 ) ( * Nl33arg21 lam0n8 ) ) 0 ) ( = ( + ( * 1 lam0n1 ) ( * 1 lam0n3 ) ( * Nl33arg31 lam0n8 ) ) 0 ) ( = ( * Nl33arg41 lam0n8 ) 0 ) ( = ( * Nl33arg51 lam0n8 ) 0 ) ( = ( * Nl33arg61 lam0n8 ) 0 ) ( = ( + ( * ( - 1 ) lam0n1 ) ( * 1 lam0n6 ) ) 0 ) ( = ( + ( * ( - 1 ) lam0n2 ) ( * 1 lam0n4 ) ) 0 ) ) ( and ( >= lam1n0 0 ) ( >= lam1n1 0 ) ( >= lam1n2 0 ) ( >= lam1n3 0 ) ( >= lam1n4 0 ) ( >= lam1n5 0 ) ( >= lam1n6 0 ) ( >= lam1n7 0 ) ( >= lam1n8 0 ) ( > ( + ( * 1 lam1n0 ) ( * 1 lam1n1 ) ( * 1 lam1n2 ) ( * 2 lam1n3 ) ( * 2 lam1n4 ) ( * 4 lam1n6 ) ( * 3 lam1n7 ) ( * Nl33CT1 lam1n8 ) ( - 1 ( + ( + ( + Nl34CT1 ( * Nl34arg41 0 ) ) ( * Nl34arg51 0 ) ) ( * Nl34arg61 0 ) ) ) ) 0 ) ( = ( + ( * ( - 1 ) lam1n3 ) ( * ( - 1 ) lam1n4 ) ( * ( - 1 ) lam1n5 ) ( * ( - 1 ) lam1n6 ) ( * ( - 1 ) lam1n7 ) ( * Nl33arg11 lam1n8 ) ( - ( + 0 Nl34arg11 ) ) ) 0 ) ( = ( + ( * ( - 1 ) lam1n0 ) ( * 1 lam1n5 ) ( * Nl33arg21 lam1n8 ) ( - ( + 0 Nl34arg21 ) ) ) 0 ) ( = ( + ( * 1 lam1n1 ) ( * 1 lam1n3 ) ( * Nl33arg31 lam1n8 ) ( - ( + 0 Nl34arg31 ) ) ) 0 ) ( = ( * Nl33arg41 lam1n8 ) 0 ) ( = ( * Nl33arg51 lam1n8 ) 0 ) ( = ( * Nl33arg61 lam1n8 ) 0 ) ( = ( - ( + 0 ( * Nl34arg41 1 ) ) ) 0 ) ( = ( - ( + 0 ( * Nl34arg51 1 ) ) ) 0 ) ( = ( - ( + 0 ( * Nl34arg61 1 ) ) ) 0 ) ( = ( + ( * ( - 1 ) lam1n1 ) ( * 1 lam1n6 ) ) 0 ) ( = ( + ( * ( - 1 ) lam1n2 ) ( * 1 lam1n4 ) ) 0 ) ) ))
(assert ( or ( and ( >= lam2n0 0 ) ( >= lam2n1 0 ) ( >= lam2n2 0 ) ( >= lam2n3 0 ) ( >= lam2n4 0 ) ( >= lam2n5 0 ) ( >= lam2n6 0 ) ( >= lam2n7 0 ) ( >= lam2n8 0 ) ( > ( + ( * 1 lam2n0 ) ( * 1 lam2n1 ) ( * 1 lam2n2 ) ( * 2 lam2n3 ) ( * 2 lam2n4 ) ( * 4 lam2n6 ) ( * 3 lam2n7 ) ( * Nl33CT1 lam2n8 ) ( - 1 ) ) 0 ) ( = ( + ( * ( - 1 ) lam2n3 ) ( * ( - 1 ) lam2n4 ) ( * ( - 1 ) lam2n5 ) ( * ( - 1 ) lam2n6 ) ( * ( - 1 ) lam2n7 ) ( * Nl33arg11 lam2n8 ) ) 0 ) ( = ( + ( * ( - 1 ) lam2n0 ) ( * 1 lam2n5 ) ( * Nl33arg21 lam2n8 ) ) 0 ) ( = ( + ( * ( - 1 ) lam2n1 ) ( * 1 lam2n3 ) ( * Nl33arg31 lam2n8 ) ) 0 ) ( = ( * Nl33arg41 lam2n8 ) 0 ) ( = ( * Nl33arg51 lam2n8 ) 0 ) ( = ( * Nl33arg61 lam2n8 ) 0 ) ( = ( + ( * 1 lam2n1 ) ( * 1 lam2n6 ) ) 0 ) ( = ( + ( * ( - 1 ) lam2n2 ) ( * 1 lam2n4 ) ) 0 ) ) ( and ( >= lam3n0 0 ) ( >= lam3n1 0 ) ( >= lam3n2 0 ) ( >= lam3n3 0 ) ( >= lam3n4 0 ) ( >= lam3n5 0 ) ( >= lam3n6 0 ) ( >= lam3n7 0 ) ( >= lam3n8 0 ) ( > ( + ( * 1 lam3n0 ) ( * 1 lam3n1 ) ( * 1 lam3n2 ) ( * 2 lam3n3 ) ( * 2 lam3n4 ) ( * 4 lam3n6 ) ( * 3 lam3n7 ) ( * Nl33CT1 lam3n8 ) ( - 1 ( + ( + ( + Nl34CT1 ( * Nl34arg41 0 ) ) ( * Nl34arg51 0 ) ) ( * Nl34arg61 0 ) ) ) ) 0 ) ( = ( + ( * ( - 1 ) lam3n3 ) ( * ( - 1 ) lam3n4 ) ( * ( - 1 ) lam3n5 ) ( * ( - 1 ) lam3n6 ) ( * ( - 1 ) lam3n7 ) ( * Nl33arg11 lam3n8 ) ( - ( + 0 Nl34arg11 ) ) ) 0 ) ( = ( + ( * ( - 1 ) lam3n0 ) ( * 1 lam3n5 ) ( * Nl33arg21 lam3n8 ) ( - ( + 0 Nl34arg21 ) ) ) 0 ) ( = ( + ( * ( - 1 ) lam3n1 ) ( * 1 lam3n3 ) ( * Nl33arg31 lam3n8 ) ( - ( + 0 Nl34arg31 ) ) ) 0 ) ( = ( * Nl33arg41 lam3n8 ) 0 ) ( = ( * Nl33arg51 lam3n8 ) 0 ) ( = ( * Nl33arg61 lam3n8 ) 0 ) ( = ( - ( + 0 ( * Nl34arg41 1 ) ) ) 0 ) ( = ( - ( + 0 ( * Nl34arg51 1 ) ) ) 0 ) ( = ( - ( + 0 ( * Nl34arg61 1 ) ) ) 0 ) ( = ( + ( * 1 lam3n1 ) ( * 1 lam3n6 ) ) 0 ) ( = ( + ( * ( - 1 ) lam3n2 ) ( * 1 lam3n4 ) ) 0 ) ) ))
(assert ( or ( and ( >= lam4n0 0 ) ( >= lam4n1 0 ) ( >= lam4n2 0 ) ( >= lam4n3 0 ) ( >= lam4n4 0 ) ( >= lam4n5 0 ) ( >= lam4n6 0 ) ( >= lam4n7 0 ) ( >= lam4n8 0 ) ( >= lam4n9 0 ) ( > ( + ( * 1 lam4n0 ) ( * 1 lam4n1 ) ( * 1 lam4n2 ) ( * ( - 1 ) lam4n3 ) ( * 2 lam4n4 ) ( * 2 lam4n5 ) ( * 4 lam4n7 ) ( * 3 lam4n8 ) ( * Nl34CT1 lam4n9 ) ( - 1 ) ) 0 ) ( = ( + ( * ( - 1 ) lam4n4 ) ( * ( - 1 ) lam4n5 ) ( * ( - 1 ) lam4n7 ) ( * ( - 1 ) lam4n8 ) ( * Nl34arg11 lam4n9 ) ) 0 ) ( = ( + ( * ( - 1 ) lam4n0 ) ( * Nl34arg21 lam4n9 ) ) 0 ) ( = ( + ( * 1 lam4n1 ) ( * 1 lam4n4 ) ( * Nl34arg31 lam4n9 ) ) 0 ) ( = ( * Nl34arg41 lam4n9 ) 0 ) ( = ( * Nl34arg51 lam4n9 ) 0 ) ( = ( * Nl34arg61 lam4n9 ) 0 ) ( = ( + ( * ( - 1 ) lam4n2 ) ( * 1 lam4n5 ) ) 0 ) ( = ( + ( * ( - 1 ) lam4n1 ) ( * 1 lam4n3 ) ( * ( - 1 ) lam4n6 ) ( * 1 lam4n7 ) ) 0 ) ( = ( + ( * ( - 2 ) lam4n3 ) ( * 2 lam4n6 ) ) 0 ) ) ( and ( >= lam5n0 0 ) ( >= lam5n1 0 ) ( >= lam5n2 0 ) ( >= lam5n3 0 ) ( >= lam5n4 0 ) ( >= lam5n5 0 ) ( >= lam5n6 0 ) ( >= lam5n7 0 ) ( >= lam5n8 0 ) ( >= lam5n9 0 ) ( > ( + ( * 1 lam5n0 ) ( * 1 lam5n1 ) ( * 1 lam5n2 ) ( * ( - 1 ) lam5n3 ) ( * 2 lam5n4 ) ( * 2 lam5n5 ) ( * 4 lam5n7 ) ( * 3 lam5n8 ) ( * Nl34CT1 lam5n9 ) ( - 1 ( + ( + ( + ( + ( + ( + Nl33CT1 ( * Nl33arg11 0 ) ) ( * Nl33arg21 0 ) ) ( * Nl33arg31 0 ) ) ( * Nl33arg41 0 ) ) ( * Nl33arg51 0 ) ) ( * Nl33arg61 0 ) ) ) ) 0 ) ( = ( + ( * ( - 1 ) lam5n4 ) ( * ( - 1 ) lam5n5 ) ( * ( - 1 ) lam5n7 ) ( * ( - 1 ) lam5n8 ) ( * Nl34arg11 lam5n9 ) ) 0 ) ( = ( + ( * ( - 1 ) lam5n0 ) ( * Nl34arg21 lam5n9 ) ) 0 ) ( = ( + ( * 1 lam5n1 ) ( * 1 lam5n4 ) ( * Nl34arg31 lam5n9 ) ) 0 ) ( = ( * Nl34arg41 lam5n9 ) 0 ) ( = ( * Nl34arg51 lam5n9 ) 0 ) ( = ( * Nl34arg61 lam5n9 ) 0 ) ( = ( + ( * ( - 1 ) lam5n2 ) ( * 1 lam5n5 ) ( - ( + 0 ( * Nl33arg11 1 ) ) ) ) 0 ) ( = ( + ( * ( - 1 ) lam5n1 ) ( * 1 lam5n3 ) ( * ( - 1 ) lam5n6 ) ( * 1 lam5n7 ) ( - ( + ( + 0 ( * Nl33arg21 1 ) ) ( * Nl33arg31 1 ) ) ) ) 0 ) ( = ( - ( + 0 ( * Nl33arg41 1 ) ) ) 0 ) ( = ( - ( + 0 ( * Nl33arg51 1 ) ) ) 0 ) ( = ( - ( + 0 ( * Nl33arg61 1 ) ) ) 0 ) ( = ( + ( * ( - 2 ) lam5n3 ) ( * 2 lam5n6 ) ( - ( + 0 ( * Nl33arg21 ( - 2 ) ) ) ) ) 0 ) ) ))
(assert ( or ( and ( >= lam6n0 0 ) ( >= lam6n1 0 ) ( >= lam6n2 0 ) ( >= lam6n3 0 ) ( >= lam6n4 0 ) ( >= lam6n5 0 ) ( >= lam6n6 0 ) ( >= lam6n7 0 ) ( >= lam6n8 0 ) ( >= lam6n9 0 ) ( > ( + ( * 1 lam6n0 ) ( * 1 lam6n1 ) ( * 1 lam6n2 ) ( * ( - 1 ) lam6n3 ) ( * 2 lam6n4 ) ( * 2 lam6n5 ) ( * 4 lam6n7 ) ( * 3 lam6n8 ) ( * Nl34CT1 lam6n9 ) ( - 1 ) ) 0 ) ( = ( + ( * ( - 1 ) lam6n4 ) ( * ( - 1 ) lam6n5 ) ( * ( - 1 ) lam6n7 ) ( * ( - 1 ) lam6n8 ) ( * Nl34arg11 lam6n9 ) ) 0 ) ( = ( + ( * ( - 1 ) lam6n0 ) ( * Nl34arg21 lam6n9 ) ) 0 ) ( = ( + ( * ( - 1 ) lam6n1 ) ( * 1 lam6n4 ) ( * Nl34arg31 lam6n9 ) ) 0 ) ( = ( * Nl34arg41 lam6n9 ) 0 ) ( = ( * Nl34arg51 lam6n9 ) 0 ) ( = ( * Nl34arg61 lam6n9 ) 0 ) ( = ( + ( * ( - 1 ) lam6n2 ) ( * 1 lam6n5 ) ) 0 ) ( = ( + ( * 1 lam6n1 ) ( * 1 lam6n3 ) ( * ( - 1 ) lam6n6 ) ( * 1 lam6n7 ) ) 0 ) ( = ( + ( * ( - 2 ) lam6n3 ) ( * 2 lam6n6 ) ) 0 ) ) ( and ( >= lam7n0 0 ) ( >= lam7n1 0 ) ( >= lam7n2 0 ) ( >= lam7n3 0 ) ( >= lam7n4 0 ) ( >= lam7n5 0 ) ( >= lam7n6 0 ) ( >= lam7n7 0 ) ( >= lam7n8 0 ) ( >= lam7n9 0 ) ( > ( + ( * 1 lam7n0 ) ( * 1 lam7n1 ) ( * 1 lam7n2 ) ( * ( - 1 ) lam7n3 ) ( * 2 lam7n4 ) ( * 2 lam7n5 ) ( * 4 lam7n7 ) ( * 3 lam7n8 ) ( * Nl34CT1 lam7n9 ) ( - 1 ( + ( + ( + ( + ( + ( + Nl33CT1 ( * Nl33arg11 0 ) ) ( * Nl33arg21 0 ) ) ( * Nl33arg31 0 ) ) ( * Nl33arg41 0 ) ) ( * Nl33arg51 0 ) ) ( * Nl33arg61 0 ) ) ) ) 0 ) ( = ( + ( * ( - 1 ) lam7n4 ) ( * ( - 1 ) lam7n5 ) ( * ( - 1 ) lam7n7 ) ( * ( - 1 ) lam7n8 ) ( * Nl34arg11 lam7n9 ) ) 0 ) ( = ( + ( * ( - 1 ) lam7n0 ) ( * Nl34arg21 lam7n9 ) ) 0 ) ( = ( + ( * ( - 1 ) lam7n1 ) ( * 1 lam7n4 ) ( * Nl34arg31 lam7n9 ) ) 0 ) ( = ( * Nl34arg41 lam7n9 ) 0 ) ( = ( * Nl34arg51 lam7n9 ) 0 ) ( = ( * Nl34arg61 lam7n9 ) 0 ) ( = ( + ( * ( - 1 ) lam7n2 ) ( * 1 lam7n5 ) ( - ( + 0 ( * Nl33arg11 1 ) ) ) ) 0 ) ( = ( + ( * 1 lam7n1 ) ( * 1 lam7n3 ) ( * ( - 1 ) lam7n6 ) ( * 1 lam7n7 ) ( - ( + ( + 0 ( * Nl33arg21 1 ) ) ( * Nl33arg31 1 ) ) ) ) 0 ) ( = ( - ( + 0 ( * Nl33arg41 1 ) ) ) 0 ) ( = ( - ( + 0 ( * Nl33arg51 1 ) ) ) 0 ) ( = ( - ( + 0 ( * Nl33arg61 1 ) ) ) 0 ) ( = ( + ( * ( - 2 ) lam7n3 ) ( * 2 lam7n6 ) ( - ( + 0 ( * Nl33arg21 ( - 2 ) ) ) ) ) 0 ) ) ))
(assert ( and ( >= lam8n0 0 ) ( >= lam8n1 0 ) ( >= lam8n2 0 ) ( >= lam8n3 0 ) ( >= lam8n4 0 ) ( >= lam8n5 0 ) ( >= lam8n6 0 ) ( >= lam8n7 0 ) ( >= lam8n8 0 ) ( >= lam8n9 0 ) ( >= lam8n10 0 ) ( >= lam8n11 0 ) ( >= lam8n12 0 ) ( >= lam8n13 0 ) ( > ( + ( * 1 lam8n0 ) ( * 1 lam8n1 ) ( * 1 lam8n2 ) ( * ( - 1 ) lam8n3 ) ( * 2 lam8n4 ) ( * 2 lam8n5 ) ( * 2 lam8n6 ) ( * 2 lam8n7 ) ( * 4 lam8n11 ) ( * 4 lam8n12 ) ( * 3 lam8n13 ) ( - 1 ( + ( + ( + ( + ( + ( + Nl33CT1 ( * Nl33arg11 0 ) ) ( * Nl33arg21 0 ) ) ( * Nl33arg31 0 ) ) ( * Nl33arg41 0 ) ) ( * Nl33arg51 0 ) ) ( * Nl33arg61 0 ) ) ) ) 0 ) ( = ( + ( * ( - 1 ) lam8n4 ) ( * ( - 1 ) lam8n5 ) ( * ( - 1 ) lam8n11 ) ( * ( - 1 ) lam8n12 ) ( * ( - 1 ) lam8n13 ) ) 0 ) ( = ( + ( * ( - 1 ) lam8n0 ) ( * ( - 1 ) lam8n6 ) ( * ( - 1 ) lam8n7 ) ( * ( - 1 ) lam8n8 ) ( * ( - 1 ) lam8n9 ) ) 0 ) ( = ( + ( * ( - 1 ) lam8n1 ) ( * 1 lam8n4 ) ( * 1 lam8n8 ) ) 0 ) ( = ( + ( * 1 lam8n6 ) ( * 1 lam8n11 ) ) 0 ) ( = ( + ( * ( - 1 ) lam8n2 ) ( * 1 lam8n5 ) ( * 1 lam8n9 ) ( - ( + 0 ( * Nl33arg11 1 ) ) ) ) 0 ) ( = ( + ( * 1 lam8n3 ) ( * 1 lam8n7 ) ( * ( - 1 ) lam8n10 ) ( * 1 lam8n12 ) ( - ( + ( + 0 ( * Nl33arg21 1 ) ) ( * Nl33arg31 1 ) ) ) ) 0 ) ( = ( - ( + 0 ( * Nl33arg41 1 ) ) ) 0 ) ( = ( - ( + 0 ( * Nl33arg51 1 ) ) ) 0 ) ( = ( - ( + 0 ( * Nl33arg61 1 ) ) ) 0 ) ( = ( + ( * ( - 2 ) lam8n3 ) ( * 2 lam8n10 ) ( - ( + 0 ( * Nl33arg21 ( - 2 ) ) ) ) ) 0 ) ))
(assert ( or ( and ( >= lam0n0 0 ) ( >= lam0n1 0 ) ( >= lam0n2 0 ) ( >= lam0n3 0 ) ( >= lam0n4 0 ) ( >= lam0n5 0 ) ( >= lam0n6 0 ) ( >= lam0n7 0 ) ( >= lam0n8 0 ) ( > ( + ( * 1 lam0n0 ) ( * 1 lam0n1 ) ( * 1 lam0n2 ) ( * 2 lam0n3 ) ( * 2 lam0n4 ) ( * 4 lam0n6 ) ( * 3 lam0n7 ) ( * Nl33CT1 lam0n8 ) ( - 1 ) ) 0 ) ( = ( + ( * ( - 1 ) lam0n3 ) ( * ( - 1 ) lam0n4 ) ( * ( - 1 ) lam0n5 ) ( * ( - 1 ) lam0n6 ) ( * ( - 1 ) lam0n7 ) ( * Nl33arg11 lam0n8 ) ) 0 ) ( = ( + ( * ( - 1 ) lam0n0 ) ( * 1 lam0n5 ) ( * Nl33arg21 lam0n8 ) ) 0 ) ( = ( + ( * 1 lam0n1 ) ( * 1 lam0n3 ) ( * Nl33arg31 lam0n8 ) ) 0 ) ( = ( * Nl33arg41 lam0n8 ) 0 ) ( = ( * Nl33arg51 lam0n8 ) 0 ) ( = ( * Nl33arg61 lam0n8 ) 0 ) ( = ( + ( * ( - 1 ) lam0n1 ) ( * 1 lam0n6 ) ) 0 ) ( = ( + ( * ( - 1 ) lam0n2 ) ( * 1 lam0n4 ) ) 0 ) ) ( and ( >= lam2n0 0 ) ( >= lam2n1 0 ) ( >= lam2n2 0 ) ( >= lam2n3 0 ) ( >= lam2n4 0 ) ( >= lam2n5 0 ) ( >= lam2n6 0 ) ( >= lam2n7 0 ) ( >= lam2n8 0 ) ( > ( + ( * 1 lam2n0 ) ( * 1 lam2n1 ) ( * 1 lam2n2 ) ( * 2 lam2n3 ) ( * 2 lam2n4 ) ( * 4 lam2n6 ) ( * 3 lam2n7 ) ( * Nl33CT1 lam2n8 ) ( - 1 ) ) 0 ) ( = ( + ( * ( - 1 ) lam2n3 ) ( * ( - 1 ) lam2n4 ) ( * ( - 1 ) lam2n5 ) ( * ( - 1 ) lam2n6 ) ( * ( - 1 ) lam2n7 ) ( * Nl33arg11 lam2n8 ) ) 0 ) ( = ( + ( * ( - 1 ) lam2n0 ) ( * 1 lam2n5 ) ( * Nl33arg21 lam2n8 ) ) 0 ) ( = ( + ( * ( - 1 ) lam2n1 ) ( * 1 lam2n3 ) ( * Nl33arg31 lam2n8 ) ) 0 ) ( = ( * Nl33arg41 lam2n8 ) 0 ) ( = ( * Nl33arg51 lam2n8 ) 0 ) ( = ( * Nl33arg61 lam2n8 ) 0 ) ( = ( + ( * 1 lam2n1 ) ( * 1 lam2n6 ) ) 0 ) ( = ( + ( * ( - 1 ) lam2n2 ) ( * 1 lam2n4 ) ) 0 ) ) ( and ( >= lam4n0 0 ) ( >= lam4n1 0 ) ( >= lam4n2 0 ) ( >= lam4n3 0 ) ( >= lam4n4 0 ) ( >= lam4n5 0 ) ( >= lam4n6 0 ) ( >= lam4n7 0 ) ( >= lam4n8 0 ) ( >= lam4n9 0 ) ( > ( + ( * 1 lam4n0 ) ( * 1 lam4n1 ) ( * 1 lam4n2 ) ( * ( - 1 ) lam4n3 ) ( * 2 lam4n4 ) ( * 2 lam4n5 ) ( * 4 lam4n7 ) ( * 3 lam4n8 ) ( * Nl34CT1 lam4n9 ) ( - 1 ) ) 0 ) ( = ( + ( * ( - 1 ) lam4n4 ) ( * ( - 1 ) lam4n5 ) ( * ( - 1 ) lam4n7 ) ( * ( - 1 ) lam4n8 ) ( * Nl34arg11 lam4n9 ) ) 0 ) ( = ( + ( * ( - 1 ) lam4n0 ) ( * Nl34arg21 lam4n9 ) ) 0 ) ( = ( + ( * 1 lam4n1 ) ( * 1 lam4n4 ) ( * Nl34arg31 lam4n9 ) ) 0 ) ( = ( * Nl34arg41 lam4n9 ) 0 ) ( = ( * Nl34arg51 lam4n9 ) 0 ) ( = ( * Nl34arg61 lam4n9 ) 0 ) ( = ( + ( * ( - 1 ) lam4n2 ) ( * 1 lam4n5 ) ) 0 ) ( = ( + ( * ( - 1 ) lam4n1 ) ( * 1 lam4n3 ) ( * ( - 1 ) lam4n6 ) ( * 1 lam4n7 ) ) 0 ) ( = ( + ( * ( - 2 ) lam4n3 ) ( * 2 lam4n6 ) ) 0 ) ) ( and ( >= lam6n0 0 ) ( >= lam6n1 0 ) ( >= lam6n2 0 ) ( >= lam6n3 0 ) ( >= lam6n4 0 ) ( >= lam6n5 0 ) ( >= lam6n6 0 ) ( >= lam6n7 0 ) ( >= lam6n8 0 ) ( >= lam6n9 0 ) ( > ( + ( * 1 lam6n0 ) ( * 1 lam6n1 ) ( * 1 lam6n2 ) ( * ( - 1 ) lam6n3 ) ( * 2 lam6n4 ) ( * 2 lam6n5 ) ( * 4 lam6n7 ) ( * 3 lam6n8 ) ( * Nl34CT1 lam6n9 ) ( - 1 ) ) 0 ) ( = ( + ( * ( - 1 ) lam6n4 ) ( * ( - 1 ) lam6n5 ) ( * ( - 1 ) lam6n7 ) ( * ( - 1 ) lam6n8 ) ( * Nl34arg11 lam6n9 ) ) 0 ) ( = ( + ( * ( - 1 ) lam6n0 ) ( * Nl34arg21 lam6n9 ) ) 0 ) ( = ( + ( * ( - 1 ) lam6n1 ) ( * 1 lam6n4 ) ( * Nl34arg31 lam6n9 ) ) 0 ) ( = ( * Nl34arg41 lam6n9 ) 0 ) ( = ( * Nl34arg51 lam6n9 ) 0 ) ( = ( * Nl34arg61 lam6n9 ) 0 ) ( = ( + ( * ( - 1 ) lam6n2 ) ( * 1 lam6n5 ) ) 0 ) ( = ( + ( * 1 lam6n1 ) ( * 1 lam6n3 ) ( * ( - 1 ) lam6n6 ) ( * 1 lam6n7 ) ) 0 ) ( = ( + ( * ( - 2 ) lam6n3 ) ( * 2 lam6n6 ) ) 0 ) ) ))
(check-sat)
(exit)
